<number of tasks>
20


<number of equipment>
5


<cycle time>
1000


<investment costs>
1,16974
2,24741
3,18114
4,10269
5,23109


<task times>
1,241,158,296,-1,-1
2,329,-1,-1,498,253
3,196,111,-1,-1,-1
4,353,-1,-1,450,217
5,321,218,-1,-1,-1
6,242,-1,-1,246,188
7,263,140,260,-1,-1
8,295,-1,-1,307,208
9,344,-1,-1,449,287
10,281,-1,-1,445,190
11,321,262,352,-1,-1
12,297,149,177,-1,-1
13,254,93,209,-1,-1
14,289,-1,-1,451,201
15,287,-1,-1,445,180
16,295,-1,-1,451,190
17,267,154,273,-1,-1
18,333,219,324,-1,-1
19,390,-1,-1,473,280
20,292,169,-1,-1,-1


<precedence relations>
1,2
1,3
1,4
1,5
2,6
2,8
3,6
3,11
3,14
3,16
4,12
4,13
5,7
5,9
6,13
7,13
8,12
9,10
9,11
10,13
11,13
12,14
12,15
12,16
13,17
13,18
13,19
13,20


<task types>
1,2
2,3
3,1
4,3
5,1
6,3
7,2
8,3
9,3
10,3
11,2
12,2
13,2
14,3
15,3
16,3
17,2
18,2
19,3
20,1


<line depot>
1,6
2,0
3,0
4,2
5,0


<processing costs>
1,21600
2,14400
3,7200
4,7200
5,7200


<saving costs>
1,1697
2,2474
3,1811
4,1026
5,2310


<end>
